sat
(
  (define-fun J () String
    "")
  (define-fun I () String
    "aaaaaaabb")
  (define-fun G () String
    "aa")
  (define-fun M () String
    "")
  (define-fun H () String
    "")
  (define-fun K () String
    "aaaaaaa")
  (define-fun N () String
    "bbaabbaa")
)
